Route #1: 53 58 40 21 73 72 74 22 75 56 39 23
Route #2: 27 28 26 12 80 68 77 3 79 33 81
Route #3: 89 6 94 95 97 92 59 99 96 93 85 91
Route #4: 13 87 2 57 15 43 42 100 37 98 61 16 44 14
Route #5: 52 18 60 83 84 5 17 45 8 82 48 47 36
Route #6: 69 1 50 76 29 24 54 55 25 4 41 67 78 34 35 71 9 51
Route #7: 31 88 7 62 10 90 32 63 11 19 49 64
Route #8: 70 30 20 66 65 46 86 38
cost: 1088
